# Multiprotein complexes

units       real
dimension   3
boundary    p p p
atom_style  full

bond_style  harmonic
#pair_style  kh/cut/coul/debye 0.1 0.0 35.0
pair_style  ljlambda 0.1 0.0 35.0
dielectric  80.0

read_data   Sample_lmpinput.data

# pairwise coefficients

bond_coeff          1     9.600     3.81
pair_coeff 	 * 	 * 	 0.000000 	 0.000 	 0.000000 	 0.000 	 0.000 
pair_coeff 	 1 	 1 	 0.2 	 5.04 	 0.73 	 15.120000000000001 	 0.0 
pair_coeff 	 1 	 2 	 0.2 	 5.8 	 0.365 	 17.4 	 0.0 
pair_coeff 	 1 	 3 	 0.2 	 5.359999999999999 	 0.581 	 16.08 	 0.0 
pair_coeff 	 1 	 4 	 0.2 	 5.3100000000000005 	 0.554 	 15.930000000000001 	 0.0 
pair_coeff 	 1 	 5 	 0.2 	 5.26 	 0.6625 	 15.78 	 0.0 
pair_coeff 	 1 	 6 	 0.2 	 5.529999999999999 	 0.622 	 16.589999999999996 	 0.0 
pair_coeff 	 1 	 7 	 0.2 	 5.48 	 0.5945 	 16.44 	 0.0 
pair_coeff 	 1 	 8 	 0.2 	 4.77 	 0.6895 	 14.309999999999999 	 0.0 
pair_coeff 	 1 	 9 	 0.2 	 5.5600000000000005 	 0.622 	 16.68 	 0.0 
pair_coeff 	 1 	 10 	 0.2 	 5.609999999999999 	 0.8514999999999999 	 16.83 	 0.0 
pair_coeff 	 1 	 11 	 0.2 	 5.609999999999999 	 0.8514999999999999 	 16.83 	 0.0 
pair_coeff 	 1 	 12 	 0.2 	 5.7 	 0.622 	 17.1 	 0.0 
pair_coeff 	 1 	 13 	 0.2 	 5.609999999999999 	 0.784 	 16.83 	 0.0 
pair_coeff 	 1 	 14 	 0.2 	 5.7 	 0.865 	 17.1 	 0.0 
pair_coeff 	 1 	 15 	 0.2 	 5.3 	 0.865 	 15.899999999999999 	 0.0 
pair_coeff 	 1 	 16 	 0.2 	 5.109999999999999 	 0.6625 	 15.329999999999998 	 0.0 
pair_coeff 	 1 	 17 	 0.2 	 5.33 	 0.7030000000000001 	 15.99 	 0.0 
pair_coeff 	 1 	 18 	 0.2 	 5.91 	 0.838 	 17.73 	 0.0 
pair_coeff 	 1 	 19 	 0.2 	 5.75 	 0.7975 	 17.25 	 0.0 
pair_coeff 	 1 	 20 	 0.2 	 5.45 	 0.8109999999999999 	 16.35 	 0.0 
pair_coeff 	 2 	 2 	 0.2 	 6.56 	 0.0 	 19.68 	 35.0 
pair_coeff 	 2 	 3 	 0.2 	 6.119999999999999 	 0.216 	 18.36 	 0.0 
pair_coeff 	 2 	 4 	 0.2 	 6.07 	 0.189 	 18.21 	 35.0 
pair_coeff 	 2 	 5 	 0.2 	 6.02 	 0.2975 	 18.06 	 0.0 
pair_coeff 	 2 	 6 	 0.2 	 6.289999999999999 	 0.257 	 18.869999999999997 	 0.0 
pair_coeff 	 2 	 7 	 0.2 	 6.24 	 0.2295 	 18.72 	 35.0 
pair_coeff 	 2 	 8 	 0.2 	 5.529999999999999 	 0.3245 	 16.589999999999996 	 0.0 
pair_coeff 	 2 	 9 	 0.2 	 6.32 	 0.257 	 18.96 	 35.0 
pair_coeff 	 2 	 10 	 0.2 	 6.369999999999999 	 0.4865 	 19.11 	 0.0 
pair_coeff 	 2 	 11 	 0.2 	 6.369999999999999 	 0.4865 	 19.11 	 0.0 
pair_coeff 	 2 	 12 	 0.2 	 6.46 	 0.257 	 19.38 	 35.0 
pair_coeff 	 2 	 13 	 0.2 	 6.369999999999999 	 0.419 	 19.11 	 0.0 
pair_coeff 	 2 	 14 	 0.2 	 6.46 	 0.5 	 19.38 	 0.0 
pair_coeff 	 2 	 15 	 0.2 	 6.06 	 0.5 	 18.18 	 0.0 
pair_coeff 	 2 	 16 	 0.2 	 5.869999999999999 	 0.2975 	 17.61 	 0.0 
pair_coeff 	 2 	 17 	 0.2 	 6.09 	 0.338 	 18.27 	 0.0 
pair_coeff 	 2 	 18 	 0.2 	 6.67 	 0.473 	 20.009999999999998 	 0.0 
pair_coeff 	 2 	 19 	 0.2 	 6.51 	 0.4325 	 19.53 	 0.0 
pair_coeff 	 2 	 20 	 0.2 	 6.21 	 0.446 	 18.63 	 0.0 
pair_coeff 	 3 	 3 	 0.2 	 5.68 	 0.432 	 17.04 	 0.0 
pair_coeff 	 3 	 4 	 0.2 	 5.63 	 0.405 	 16.89 	 0.0 
pair_coeff 	 3 	 5 	 0.2 	 5.58 	 0.5135 	 16.740000000000002 	 0.0 
pair_coeff 	 3 	 6 	 0.2 	 5.85 	 0.473 	 17.549999999999997 	 0.0 
pair_coeff 	 3 	 7 	 0.2 	 5.8 	 0.4455 	 17.4 	 0.0 
pair_coeff 	 3 	 8 	 0.2 	 5.09 	 0.5405 	 15.27 	 0.0 
pair_coeff 	 3 	 9 	 0.2 	 5.88 	 0.473 	 17.64 	 0.0 
pair_coeff 	 3 	 10 	 0.2 	 5.93 	 0.7025 	 17.79 	 0.0 
pair_coeff 	 3 	 11 	 0.2 	 5.93 	 0.7025 	 17.79 	 0.0 
pair_coeff 	 3 	 12 	 0.2 	 6.02 	 0.473 	 18.06 	 0.0 
pair_coeff 	 3 	 13 	 0.2 	 5.93 	 0.635 	 17.79 	 0.0 
pair_coeff 	 3 	 14 	 0.2 	 6.02 	 0.716 	 18.06 	 0.0 
pair_coeff 	 3 	 15 	 0.2 	 5.619999999999999 	 0.716 	 16.86 	 0.0 
pair_coeff 	 3 	 16 	 0.2 	 5.43 	 0.5135 	 16.29 	 0.0 
pair_coeff 	 3 	 17 	 0.2 	 5.65 	 0.554 	 16.950000000000003 	 0.0 
pair_coeff 	 3 	 18 	 0.2 	 6.23 	 0.689 	 18.69 	 0.0 
pair_coeff 	 3 	 19 	 0.2 	 6.07 	 0.6485 	 18.21 	 0.0 
pair_coeff 	 3 	 20 	 0.2 	 5.77 	 0.662 	 17.31 	 0.0 
pair_coeff 	 4 	 4 	 0.2 	 5.58 	 0.378 	 16.740000000000002 	 35.0 
pair_coeff 	 4 	 5 	 0.2 	 5.53 	 0.4865 	 16.59 	 0.0 
pair_coeff 	 4 	 6 	 0.2 	 5.8 	 0.446 	 17.4 	 0.0 
pair_coeff 	 4 	 7 	 0.2 	 5.75 	 0.4185 	 17.25 	 35.0 
pair_coeff 	 4 	 8 	 0.2 	 5.04 	 0.5135000000000001 	 15.120000000000001 	 0.0 
pair_coeff 	 4 	 9 	 0.2 	 5.83 	 0.446 	 17.490000000000002 	 35.0 
pair_coeff 	 4 	 10 	 0.2 	 5.88 	 0.6755 	 17.64 	 0.0 
pair_coeff 	 4 	 11 	 0.2 	 5.88 	 0.6755 	 17.64 	 0.0 
pair_coeff 	 4 	 12 	 0.2 	 5.970000000000001 	 0.446 	 17.910000000000004 	 35.0 
pair_coeff 	 4 	 13 	 0.2 	 5.88 	 0.608 	 17.64 	 0.0 
pair_coeff 	 4 	 14 	 0.2 	 5.970000000000001 	 0.6890000000000001 	 17.910000000000004 	 0.0 
pair_coeff 	 4 	 15 	 0.2 	 5.57 	 0.6890000000000001 	 16.71 	 0.0 
pair_coeff 	 4 	 16 	 0.2 	 5.38 	 0.4865 	 16.14 	 0.0 
pair_coeff 	 4 	 17 	 0.2 	 5.6 	 0.527 	 16.799999999999997 	 0.0 
pair_coeff 	 4 	 18 	 0.2 	 6.18 	 0.6619999999999999 	 18.54 	 0.0 
pair_coeff 	 4 	 19 	 0.2 	 6.02 	 0.6214999999999999 	 18.06 	 0.0 
pair_coeff 	 4 	 20 	 0.2 	 5.720000000000001 	 0.635 	 17.160000000000004 	 0.0 
pair_coeff 	 5 	 5 	 0.2 	 5.48 	 0.595 	 16.44 	 0.0 
pair_coeff 	 5 	 6 	 0.2 	 5.75 	 0.5545 	 17.25 	 0.0 
pair_coeff 	 5 	 7 	 0.2 	 5.7 	 0.527 	 17.1 	 0.0 
pair_coeff 	 5 	 8 	 0.2 	 4.99 	 0.622 	 14.97 	 0.0 
pair_coeff 	 5 	 9 	 0.2 	 5.78 	 0.5545 	 17.34 	 0.0 
pair_coeff 	 5 	 10 	 0.2 	 5.83 	 0.784 	 17.490000000000002 	 0.0 
pair_coeff 	 5 	 11 	 0.2 	 5.83 	 0.784 	 17.490000000000002 	 0.0 
pair_coeff 	 5 	 12 	 0.2 	 5.92 	 0.5545 	 17.759999999999998 	 0.0 
pair_coeff 	 5 	 13 	 0.2 	 5.83 	 0.7164999999999999 	 17.490000000000002 	 0.0 
pair_coeff 	 5 	 14 	 0.2 	 5.92 	 0.7975 	 17.759999999999998 	 0.0 
pair_coeff 	 5 	 15 	 0.2 	 5.52 	 0.7975 	 16.56 	 0.0 
pair_coeff 	 5 	 16 	 0.2 	 5.33 	 0.595 	 15.99 	 0.0 
pair_coeff 	 5 	 17 	 0.2 	 5.550000000000001 	 0.6355 	 16.650000000000002 	 0.0 
pair_coeff 	 5 	 18 	 0.2 	 6.130000000000001 	 0.7705 	 18.39 	 0.0 
pair_coeff 	 5 	 19 	 0.2 	 5.970000000000001 	 0.73 	 17.910000000000004 	 0.0 
pair_coeff 	 5 	 20 	 0.2 	 5.67 	 0.7435 	 17.009999999999998 	 0.0 
pair_coeff 	 6 	 6 	 0.2 	 6.02 	 0.514 	 18.06 	 0.0 
pair_coeff 	 6 	 7 	 0.2 	 5.97 	 0.48650000000000004 	 17.91 	 0.0 
pair_coeff 	 6 	 8 	 0.2 	 5.26 	 0.5815 	 15.78 	 0.0 
pair_coeff 	 6 	 9 	 0.2 	 6.05 	 0.514 	 18.15 	 0.0 
pair_coeff 	 6 	 10 	 0.2 	 6.1 	 0.7435 	 18.299999999999997 	 0.0 
pair_coeff 	 6 	 11 	 0.2 	 6.1 	 0.7435 	 18.299999999999997 	 0.0 
pair_coeff 	 6 	 12 	 0.2 	 6.1899999999999995 	 0.514 	 18.57 	 0.0 
pair_coeff 	 6 	 13 	 0.2 	 6.1 	 0.6759999999999999 	 18.299999999999997 	 0.0 
pair_coeff 	 6 	 14 	 0.2 	 6.1899999999999995 	 0.757 	 18.57 	 0.0 
pair_coeff 	 6 	 15 	 0.2 	 5.789999999999999 	 0.757 	 17.369999999999997 	 0.0 
pair_coeff 	 6 	 16 	 0.2 	 5.6 	 0.5545 	 16.799999999999997 	 0.0 
pair_coeff 	 6 	 17 	 0.2 	 5.82 	 0.595 	 17.46 	 0.0 
pair_coeff 	 6 	 18 	 0.2 	 6.4 	 0.73 	 19.200000000000003 	 0.0 
pair_coeff 	 6 	 19 	 0.2 	 6.24 	 0.6895 	 18.72 	 0.0 
pair_coeff 	 6 	 20 	 0.2 	 5.9399999999999995 	 0.7030000000000001 	 17.82 	 0.0 
pair_coeff 	 7 	 7 	 0.2 	 5.92 	 0.459 	 17.759999999999998 	 35.0 
pair_coeff 	 7 	 8 	 0.2 	 5.21 	 0.554 	 15.629999999999999 	 0.0 
pair_coeff 	 7 	 9 	 0.2 	 6.0 	 0.48650000000000004 	 18.0 	 35.0 
pair_coeff 	 7 	 10 	 0.2 	 6.05 	 0.716 	 18.15 	 0.0 
pair_coeff 	 7 	 11 	 0.2 	 6.05 	 0.716 	 18.15 	 0.0 
pair_coeff 	 7 	 12 	 0.2 	 6.140000000000001 	 0.48650000000000004 	 18.42 	 35.0 
pair_coeff 	 7 	 13 	 0.2 	 6.05 	 0.6485 	 18.15 	 0.0 
pair_coeff 	 7 	 14 	 0.2 	 6.140000000000001 	 0.7295 	 18.42 	 0.0 
pair_coeff 	 7 	 15 	 0.2 	 5.74 	 0.7295 	 17.22 	 0.0 
pair_coeff 	 7 	 16 	 0.2 	 5.55 	 0.527 	 16.65 	 0.0 
pair_coeff 	 7 	 17 	 0.2 	 5.77 	 0.5675 	 17.31 	 0.0 
pair_coeff 	 7 	 18 	 0.2 	 6.35 	 0.7025 	 19.049999999999997 	 0.0 
pair_coeff 	 7 	 19 	 0.2 	 6.1899999999999995 	 0.662 	 18.57 	 0.0 
pair_coeff 	 7 	 20 	 0.2 	 5.890000000000001 	 0.6755 	 17.67 	 0.0 
pair_coeff 	 8 	 8 	 0.2 	 4.5 	 0.649 	 13.5 	 0.0 
pair_coeff 	 8 	 9 	 0.2 	 5.29 	 0.5815 	 15.870000000000001 	 0.0 
pair_coeff 	 8 	 10 	 0.2 	 5.34 	 0.8109999999999999 	 16.02 	 0.0 
pair_coeff 	 8 	 11 	 0.2 	 5.34 	 0.8109999999999999 	 16.02 	 0.0 
pair_coeff 	 8 	 12 	 0.2 	 5.43 	 0.5815 	 16.29 	 0.0 
pair_coeff 	 8 	 13 	 0.2 	 5.34 	 0.7435 	 16.02 	 0.0 
pair_coeff 	 8 	 14 	 0.2 	 5.43 	 0.8245 	 16.29 	 0.0 
pair_coeff 	 8 	 15 	 0.2 	 5.029999999999999 	 0.8245 	 15.089999999999998 	 0.0 
pair_coeff 	 8 	 16 	 0.2 	 4.84 	 0.622 	 14.52 	 0.0 
pair_coeff 	 8 	 17 	 0.2 	 5.0600000000000005 	 0.6625000000000001 	 15.180000000000001 	 0.0 
pair_coeff 	 8 	 18 	 0.2 	 5.640000000000001 	 0.7975 	 16.92 	 0.0 
pair_coeff 	 8 	 19 	 0.2 	 5.48 	 0.757 	 16.44 	 0.0 
pair_coeff 	 8 	 20 	 0.2 	 5.18 	 0.7705 	 15.54 	 0.0 
pair_coeff 	 9 	 9 	 0.2 	 6.08 	 0.514 	 18.240000000000002 	 35.0 
pair_coeff 	 9 	 10 	 0.2 	 6.13 	 0.7435 	 18.39 	 0.0 
pair_coeff 	 9 	 11 	 0.2 	 6.13 	 0.7435 	 18.39 	 0.0 
pair_coeff 	 9 	 12 	 0.2 	 6.220000000000001 	 0.514 	 18.660000000000004 	 35.0 
pair_coeff 	 9 	 13 	 0.2 	 6.13 	 0.6759999999999999 	 18.39 	 0.0 
pair_coeff 	 9 	 14 	 0.2 	 6.220000000000001 	 0.757 	 18.660000000000004 	 0.0 
pair_coeff 	 9 	 15 	 0.2 	 5.82 	 0.757 	 17.46 	 0.0 
pair_coeff 	 9 	 16 	 0.2 	 5.63 	 0.5545 	 16.89 	 0.0 
pair_coeff 	 9 	 17 	 0.2 	 5.85 	 0.595 	 17.549999999999997 	 0.0 
pair_coeff 	 9 	 18 	 0.2 	 6.43 	 0.73 	 19.29 	 0.0 
pair_coeff 	 9 	 19 	 0.2 	 6.27 	 0.6895 	 18.81 	 0.0 
pair_coeff 	 9 	 20 	 0.2 	 5.970000000000001 	 0.7030000000000001 	 17.910000000000004 	 0.0 
pair_coeff 	 10 	 10 	 0.2 	 6.18 	 0.973 	 18.54 	 0.0 
pair_coeff 	 10 	 11 	 0.2 	 6.18 	 0.973 	 18.54 	 0.0 
pair_coeff 	 10 	 12 	 0.2 	 6.27 	 0.7435 	 18.81 	 0.0 
pair_coeff 	 10 	 13 	 0.2 	 6.18 	 0.9055 	 18.54 	 0.0 
pair_coeff 	 10 	 14 	 0.2 	 6.27 	 0.9864999999999999 	 18.81 	 0.0 
pair_coeff 	 10 	 15 	 0.2 	 5.869999999999999 	 0.9864999999999999 	 17.61 	 0.0 
pair_coeff 	 10 	 16 	 0.2 	 5.68 	 0.784 	 17.04 	 0.0 
pair_coeff 	 10 	 17 	 0.2 	 5.9 	 0.8245 	 17.700000000000003 	 0.0 
pair_coeff 	 10 	 18 	 0.2 	 6.48 	 0.9595 	 19.44 	 0.0 
pair_coeff 	 10 	 19 	 0.2 	 6.32 	 0.919 	 18.96 	 0.0 
pair_coeff 	 10 	 20 	 0.2 	 6.02 	 0.9325 	 18.06 	 0.0 
pair_coeff 	 11 	 11 	 0.2 	 6.18 	 0.973 	 18.54 	 0.0 
pair_coeff 	 11 	 12 	 0.2 	 6.27 	 0.7435 	 18.81 	 0.0 
pair_coeff 	 11 	 13 	 0.2 	 6.18 	 0.9055 	 18.54 	 0.0 
pair_coeff 	 11 	 14 	 0.2 	 6.27 	 0.9864999999999999 	 18.81 	 0.0 
pair_coeff 	 11 	 15 	 0.2 	 5.869999999999999 	 0.9864999999999999 	 17.61 	 0.0 
pair_coeff 	 11 	 16 	 0.2 	 5.68 	 0.784 	 17.04 	 0.0 
pair_coeff 	 11 	 17 	 0.2 	 5.9 	 0.8245 	 17.700000000000003 	 0.0 
pair_coeff 	 11 	 18 	 0.2 	 6.48 	 0.9595 	 19.44 	 0.0 
pair_coeff 	 11 	 19 	 0.2 	 6.32 	 0.919 	 18.96 	 0.0 
pair_coeff 	 11 	 20 	 0.2 	 6.02 	 0.9325 	 18.06 	 0.0 
pair_coeff 	 12 	 12 	 0.2 	 6.36 	 0.514 	 19.080000000000002 	 35.0 
pair_coeff 	 12 	 13 	 0.2 	 6.27 	 0.6759999999999999 	 18.81 	 0.0 
pair_coeff 	 12 	 14 	 0.2 	 6.36 	 0.757 	 19.080000000000002 	 0.0 
pair_coeff 	 12 	 15 	 0.2 	 5.96 	 0.757 	 17.88 	 0.0 
pair_coeff 	 12 	 16 	 0.2 	 5.77 	 0.5545 	 17.31 	 0.0 
pair_coeff 	 12 	 17 	 0.2 	 5.99 	 0.595 	 17.97 	 0.0 
pair_coeff 	 12 	 18 	 0.2 	 6.57 	 0.73 	 19.71 	 0.0 
pair_coeff 	 12 	 19 	 0.2 	 6.41 	 0.6895 	 19.23 	 0.0 
pair_coeff 	 12 	 20 	 0.2 	 6.11 	 0.7030000000000001 	 18.330000000000002 	 0.0 
pair_coeff 	 13 	 13 	 0.2 	 6.18 	 0.838 	 18.54 	 0.0 
pair_coeff 	 13 	 14 	 0.2 	 6.27 	 0.919 	 18.81 	 0.0 
pair_coeff 	 13 	 15 	 0.2 	 5.869999999999999 	 0.919 	 17.61 	 0.0 
pair_coeff 	 13 	 16 	 0.2 	 5.68 	 0.7164999999999999 	 17.04 	 0.0 
pair_coeff 	 13 	 17 	 0.2 	 5.9 	 0.757 	 17.700000000000003 	 0.0 
pair_coeff 	 13 	 18 	 0.2 	 6.48 	 0.8919999999999999 	 19.44 	 0.0 
pair_coeff 	 13 	 19 	 0.2 	 6.32 	 0.8514999999999999 	 18.96 	 0.0 
pair_coeff 	 13 	 20 	 0.2 	 6.02 	 0.865 	 18.06 	 0.0 
pair_coeff 	 14 	 14 	 0.2 	 6.36 	 1.0 	 19.080000000000002 	 0.0 
pair_coeff 	 14 	 15 	 0.2 	 5.96 	 1.0 	 17.88 	 0.0 
pair_coeff 	 14 	 16 	 0.2 	 5.77 	 0.7975 	 17.31 	 0.0 
pair_coeff 	 14 	 17 	 0.2 	 5.99 	 0.8380000000000001 	 17.97 	 0.0 
pair_coeff 	 14 	 18 	 0.2 	 6.57 	 0.973 	 19.71 	 0.0 
pair_coeff 	 14 	 19 	 0.2 	 6.41 	 0.9325 	 19.23 	 0.0 
pair_coeff 	 14 	 20 	 0.2 	 6.11 	 0.946 	 18.330000000000002 	 0.0 
pair_coeff 	 15 	 15 	 0.2 	 5.56 	 1.0 	 16.68 	 0.0 
pair_coeff 	 15 	 16 	 0.2 	 5.369999999999999 	 0.7975 	 16.11 	 0.0 
pair_coeff 	 15 	 17 	 0.2 	 5.59 	 0.8380000000000001 	 16.77 	 0.0 
pair_coeff 	 15 	 18 	 0.2 	 6.17 	 0.973 	 18.509999999999998 	 0.0 
pair_coeff 	 15 	 19 	 0.2 	 6.01 	 0.9325 	 18.03 	 0.0 
pair_coeff 	 15 	 20 	 0.2 	 5.71 	 0.946 	 17.13 	 0.0 
pair_coeff 	 16 	 16 	 0.2 	 5.18 	 0.595 	 15.54 	 0.0 
pair_coeff 	 16 	 17 	 0.2 	 5.4 	 0.6355 	 16.200000000000003 	 0.0 
pair_coeff 	 16 	 18 	 0.2 	 5.98 	 0.7705 	 17.94 	 0.0 
pair_coeff 	 16 	 19 	 0.2 	 5.82 	 0.73 	 17.46 	 0.0 
pair_coeff 	 16 	 20 	 0.2 	 5.52 	 0.7435 	 16.56 	 0.0 
pair_coeff 	 17 	 17 	 0.2 	 5.62 	 0.676 	 16.86 	 0.0 
pair_coeff 	 17 	 18 	 0.2 	 6.2 	 0.8109999999999999 	 18.6 	 0.0 
pair_coeff 	 17 	 19 	 0.2 	 6.04 	 0.7705 	 18.12 	 0.0 
pair_coeff 	 17 	 20 	 0.2 	 5.74 	 0.784 	 17.22 	 0.0 
pair_coeff 	 18 	 18 	 0.2 	 6.78 	 0.946 	 20.34 	 0.0 
pair_coeff 	 18 	 19 	 0.2 	 6.62 	 0.9055 	 19.86 	 0.0 
pair_coeff 	 18 	 20 	 0.2 	 6.32 	 0.919 	 18.96 	 0.0 
pair_coeff 	 19 	 19 	 0.2 	 6.46 	 0.865 	 19.38 	 0.0 
pair_coeff 	 19 	 20 	 0.2 	 6.16 	 0.8785000000000001 	 18.48 	 0.0 
pair_coeff 	 20 	 20 	 0.2 	 5.86 	 0.892 	 17.580000000000002 	 0.0 


special_bonds fene
neighbor  3.5 multi
neigh_modify  every 10 delay 0

comm_style    tiled
timestep      10.0

#minimize        .01 .01 1000 10000
#reset_timestep  0

velocity      all create 150 49421
fix           fxnpt all npt temp 150 150 100.0 iso 1.0 1.0 10000.0

thermo        1000
thermo_style  custom step pe ke temp lx ly lz vol density pxx pyy pzz pxy pxz pyz
thermo_modify flush yes

dump          VMD1 all xtc 1000 dump.Sample_T150K_cal.xtc
run            50000

fix             fxnpt all npt temp 150.0 150.0 100.0 x 1.0 1.0 1000.0 y 1.0 1.0 1000.0 couple xy
fix             fxbal all balance 1000 1.1 rcb
run		13500

fix 		1 all deform 1 z final -500 500
run		50000

write_data      Sample_T150K_cal.data nocoeff
